\ This file has been generated by DOcplex
\ ENCODING=ISO-8859-1
\Problem name: random_problem.lp

Minimize
 obj: - 10 x0 - 8 x1 + 6 x2 + 8 x3 + x4 + x5 + 7 x8 - 8 x9 + 8 x10 - 2 x11 + x12
      + 10 x13 + 10 x14 - 7 x15 + 7 x16 + 5 x17 + 4 x18 + 8 x19 - 2 x20 + 2 x21
      + 8 x22 + 7 x23 - 9 x24 - 8 x25 - 10 x26 - 7 x27 - 3 x28 + 7 x29 - 3 x30
      - 6 x31 - 5 x32 - 10 x33 - 4 x34 + 8 x35 - 3 x36 - 3 x37 - 4 x38 - 10 x39
      + 3 x40 + 4 x41 - 6 x42 - 7 x43 - 8 x44 - 9 x45 + x46 + 10 x47 - x48
      - 5 x49 + 10 x50 + 4 x51 + 7 x52 + 7 x54 + [ - 14 x0*x23 - 18 x0*x25
      + 12 x0*x32 - 10 x0*x33 + 16 x0*x37 - 2 x0*x40 + 18 x0*x47 - 20 x0*x49
      - 2 x0*x51 + 4 x0*x54 + 4 x1*x16 - 14 x1*x17 - 12 x1*x18 - 20 x1*x28
      + 2 x1*x33 - 14 x1*x34 + 16 x1*x41 - 8 x1*x42 + 8 x1*x50 - 10 x1*x54
      + 14 x2*x5 + 4 x2*x7 - 16 x2*x9 + 12 x2*x15 + 16 x2*x21 - 18 x2*x30
      - 20 x2*x35 + 12 x2*x39 + 14 x2*x41 - 8 x2*x42 + 8 x3*x5 - 8 x3*x8
      + 14 x3*x9 - 6 x3*x11 + 4 x3*x14 + 6 x3*x15 - 6 x3*x17 + 4 x3*x31
      + 8 x3*x35 - 4 x3*x54 - 16 x4*x5 + 4 x4*x10 + 8 x4*x18 - 6 x4*x19
      - 12 x4*x25 + 10 x4*x34 + 4 x4*x37 - 2 x4*x43 + 14 x4*x47 - 6 x4*x51
      + 16 x5*x8 + 6 x5*x9 - 10 x5*x28 - 12 x5*x39 + 6 x5*x46 - 6 x5*x50
      + 4 x5*x54 - 18 x6*x9 + 20 x6*x11 + 16 x6*x15 + 14 x6*x23 - 10 x6*x29
      - 2 x6*x35 - 8 x6*x37 - 4 x6*x39 + 12 x6*x40 + 16 x6*x45 - 20 x7*x11
      + 8 x7*x21 - 4 x7*x28 - 10 x7*x32 - 16 x7*x33 + 20 x7*x34 + 10 x7*x38
      + 8 x7*x48 - 4 x7*x49 + 6 x8*x12 + 16 x8*x16 + 12 x8*x26 - 8 x8*x38
      - 4 x8*x45 + 8 x8*x46 + 18 x8*x48 + 4 x8*x54 + 14 x9*x14 + 8 x9*x23
      + 18 x9*x36 - 2 x9*x42 + 6 x9*x49 - 4 x9*x52 - 4 x10*x13 + 18 x10*x18
      - 4 x10*x20 + 2 x10*x26 - 4 x10*x27 - 16 x10*x28 - 16 x10*x39 + 12 x10*x44
      - 4 x10*x45 - 4 x11*x22 + 2 x11*x27 - 8 x11*x29 - 6 x11*x41 - 8 x11*x48
      - 14 x11*x50 + 4 x11*x54 - 18 x12*x13 - 12 x12*x17 - 8 x12*x21 + 2 x12*x25
      - 20 x12*x30 + 18 x12*x33 + 16 x12*x34 - 8 x12*x40 - 12 x12*x44
      - 18 x13*x14 + 18 x13*x20 - 16 x13*x30 + 6 x13*x33 - 12 x13*x36
      - 6 x13*x38 + 18 x13*x41 - 12 x13*x47 + 4 x14*x19 - 14 x14*x27
      - 12 x14*x30 + 2 x14*x37 - 20 x14*x42 - 20 x14*x47 - 16 x14*x52
      - 12 x15*x31 - 4 x15*x34 - 2 x15*x35 - 8 x15*x37 + 2 x15*x42 - 14 x15*x47
      - 14 x15*x48 - 10 x16*x21 + 12 x16*x26 + 14 x16*x29 - 10 x16*x43
      + 10 x16*x49 - 10 x16*x52 - 20 x16*x53 + 12 x16*x54 - 20 x17*x24
      + 10 x17*x25 + 4 x17*x30 + 18 x17*x35 - 14 x17*x43 - 20 x17*x45
      + 10 x17*x54 - 4 x18*x20 - 10 x18*x22 - 18 x18*x23 + 8 x18*x26 - 8 x18*x33
      - 10 x18*x35 + 20 x18*x42 + 20 x19*x20 - 6 x19*x21 - 8 x19*x22
      - 16 x19*x23 - 2 x19*x39 + 6 x19*x43 - 4 x19*x50 + 20 x19*x51 - 12 x20*x22
      - 12 x20*x33 - 12 x20*x36 + 18 x20*x39 + 12 x20*x41 - 8 x20*x43
      + 12 x21*x24 + 14 x21*x26 - 4 x21*x43 - 4 x21*x46 + 14 x21*x48 - 2 x22*x23
      + 10 x22*x27 + 20 x22*x29 + 6 x22*x39 + 6 x22*x42 - 2 x22*x52 + 10 x23*x25
      + 6 x23*x41 - 8 x23*x44 - 18 x23*x47 + 18 x24*x26 - 20 x24*x30
      + 18 x24*x34 + 6 x24*x39 + 4 x24*x42 + 18 x24*x44 + 12 x24*x46
      + 12 x24*x51 + 4 x25*x27 - 2 x25*x32 + 2 x25*x34 - 12 x25*x37 + 2 x25*x53
      - 20 x26*x27 + 4 x26*x36 + 20 x26*x43 + 4 x26*x44 - 12 x27*x31
      - 14 x27*x41 + 14 x27*x46 - 14 x27*x51 + 2 x28*x32 + 8 x28*x34
      + 20 x28*x36 + 16 x28*x38 - 14 x28*x45 + 10 x28*x49 - 4 x29*x35
      - 6 x29*x41 + 6 x29*x43 + 14 x29*x44 + 4 x29*x52 + 20 x29*x53 - 12 x30*x36
      + 12 x30*x42 - 12 x30*x50 - 6 x30*x52 + 16 x31*x36 - 4 x31*x39
      + 12 x31*x46 - 8 x31*x50 + 4 x31*x51 - 8 x31*x52 + 2 x31*x53 - 14 x32*x37
      + 8 x32*x43 - 6 x32*x49 - 6 x32*x50 + 4 x32*x51 - 4 x32*x52 + 10 x33*x47
      + 14 x33*x49 + 20 x33*x51 + 14 x34*x38 + 2 x34*x41 - 6 x35*x38
      + 18 x35*x40 - 4 x35*x47 + 2 x36*x40 + 10 x36*x46 + 16 x36*x51 + 2 x37*x40
      - 12 x37*x46 + 14 x37*x53 - 4 x38*x45 - 10 x38*x46 + 4 x38*x48 + 6 x38*x49
      + 20 x39*x41 - 10 x40*x44 - 4 x40*x46 - 12 x40*x47 - 20 x40*x53
      + 8 x42*x44 - 8 x43*x49 - 10 x44*x48 - 6 x44*x53 + 2 x45*x48 - 16 x45*x51
      + 12 x45*x52 - 20 x45*x53 - 2 x47*x53 + 2 x48*x50 - 12 x48*x54
      + 10 x49*x50 + 20 x50*x53 - 4 x52*x54 ]/2
Subject To
 c0: x1 + 2 x2 - 2 x3 - x7 - 2 x17 - x20 + 2 x22 + x25 - 2 x33 - x34 = -1
 c1: 2 x2 + 2 x17 + 2 x18 - 2 x20 - 2 x29 - 2 x30 - x32 - x33 + x44 - 2 x47 = 
     -1
 c2: 2 x3 - x5 + 2 x22 + x24 - x26 + 2 x31 + x34 - x36 + x47 - 2 x50 = -1
 c3: x9 - 2 x16 + 2 x17 - x27 - 2 x29 - x30 + x37 - x42 + 2 x45 + 2 x50 = -1
 c4: 2 x1 - 2 x14 + x15 + x18 + 2 x24 - 2 x27 - x36 + x37 - x47 - 2 x51 = 0
 c5: x0 + x3 + x13 - 2 x15 - x17 + x27 - 2 x39 - x46 - x48 + 2 x51 = 1
 c6: - 2 x8 + 2 x15 + 2 x16 + x19 - x25 - 2 x32 + 2 x36 + x40 + x43 + 2 x47 = 
     -2
 c7: - x6 - 2 x10 + x13 - x16 - x32 - 2 x34 + 2 x35 - 2 x37 - 2 x38 + 2 x47 = 1
 c8: 2 x15 - x23 + x28 - x34 + 2 x36 + x37 - x38 + x47 + x51 - 2 x53 = 0
 c9: x0 + x11 - x25 - x30 + 2 x40 - 2 x42 - 2 x44 + x46 - x47 - 2 x48 = -1
 c10: - 2 x1 - x2 + 2 x4 - 2 x9 - x11 - 2 x19 + x29 + 2 x41 + 2 x43 - 2 x47 = 
      -1

Bounds
 0 <= x0 <= 1
 0 <= x1 <= 1
 0 <= x2 <= 1
 0 <= x3 <= 1
 0 <= x4 <= 1
 0 <= x5 <= 1
 0 <= x6 <= 1
 0 <= x7 <= 1
 0 <= x8 <= 1
 0 <= x9 <= 1
 0 <= x10 <= 1
 0 <= x11 <= 1
 0 <= x12 <= 1
 0 <= x13 <= 1
 0 <= x14 <= 1
 0 <= x15 <= 1
 0 <= x16 <= 1
 0 <= x17 <= 1
 0 <= x18 <= 1
 0 <= x19 <= 1
 0 <= x20 <= 1
 0 <= x21 <= 1
 0 <= x22 <= 1
 0 <= x23 <= 1
 0 <= x24 <= 1
 0 <= x25 <= 1
 0 <= x26 <= 1
 0 <= x27 <= 1
 0 <= x28 <= 1
 0 <= x29 <= 1
 0 <= x30 <= 1
 0 <= x31 <= 1
 0 <= x32 <= 1
 0 <= x33 <= 1
 0 <= x34 <= 1
 0 <= x35 <= 1
 0 <= x36 <= 1
 0 <= x37 <= 1
 0 <= x38 <= 1
 0 <= x39 <= 1
 0 <= x40 <= 1
 0 <= x41 <= 1
 0 <= x42 <= 1
 0 <= x43 <= 1
 0 <= x44 <= 1
 0 <= x45 <= 1
 0 <= x46 <= 1
 0 <= x47 <= 1
 0 <= x48 <= 1
 0 <= x49 <= 1
 0 <= x50 <= 1
 0 <= x51 <= 1
 0 <= x52 <= 1
 0 <= x53 <= 1
 0 <= x54 <= 1

Binaries
 x0 x1 x2 x3 x4 x5 x6 x7 x8 x9 x10 x11 x12 x13 x14 x15 x16 x17 x18 x19 x20 x21
 x22 x23 x24 x25 x26 x27 x28 x29 x30 x31 x32 x33 x34 x35 x36 x37 x38 x39 x40 x41
 x42 x43 x44 x45 x46 x47 x48 x49 x50 x51 x52 x53 x54
End
